feasible solution found by trivial heuristic after 0.3 seconds, objective value 0.000000e+00
presolving:
(round 1, fast)       73990 del vars, 75263 del conss, 0 add conss, 73980 chg bounds, 0 chg sides, 0 chg coeffs, 0 upgd conss, 0 impls, 36459 clqs
   (0.7s) running MILP presolver
   (0.8s) MILP presolver (2 rounds): 0 aggregations, 0 fixings, 0 bound changes
(round 2, exhaustive) 73990 del vars, 75748 del conss, 0 add conss, 73980 chg bounds, 0 chg sides, 0 chg coeffs, 0 upgd conss, 0 impls, 36459 clqs
(round 3, exhaustive) 73990 del vars, 75748 del conss, 0 add conss, 73980 chg bounds, 0 chg sides, 0 chg coeffs, 36460 upgd conss, 0 impls, 36459 clqs
   (1.0s) probing: 51/1263 (4.0%) - 0 fixings, 0 aggregations, 0 implications, 0 bound changes
   (1.0s) probing aborted: 50/50 successive totally useless probings
   (1.1s) symmetry computation started: requiring (bin +, int -, cont +), (fixed: bin -, int +, cont -)
   (1.1s) no symmetry present
presolving (4 rounds: 4 fast, 3 medium, 3 exhaustive):
 73990 deleted vars, 75748 deleted constraints, 0 added constraints, 73980 tightened bounds, 0 added holes, 0 changed sides, 0 changed coefficients
 0 implications, 36459 cliques
presolved problem has 1263 variables (1263 bin, 0 int, 0 impl, 0 cont) and 36461 constraints
      1 constraints of type <knapsack>
  36459 constraints of type <setppc>
      1 constraints of type <linear>
Presolving Time: 0.86
transformed 1/1 original solutions to the transformed problem space

 time | node  | left  |LP iter|LP it/n|mem/heur|mdpt |vars |cons |rows |cuts |sepa|confs|strbr|  dualbound   | primalbound  |  gap   | compl. 
p 1.2s|     1 |     0 |     0 |     - |  clique|   0 |1263 |  36k|  36k|   0 |  0 |   0 |   0 | 2.275438e+03 | 5.062110e+01 |4395.04%| unknown
p 1.2s|     1 |     0 |    36 |     - | vbounds|   0 |1263 |  36k|  36k|   0 |  0 |   0 |   0 | 2.275438e+03 | 5.758072e+01 |3851.74%| unknown
  1.7s|     1 |     0 |  2160 |     - |   314M |   0 |1263 |  36k|  36k|   0 |  0 |   0 |   0 | 1.422415e+02 | 5.758072e+01 | 147.03%| unknown
r 1.7s|     1 |     0 |  2160 |     - |randroun|   0 |1263 |  36k|  36k|   0 |  0 |   0 |   0 | 1.422415e+02 | 1.031559e+02 |  37.89%| unknown
i 1.8s|     1 |     0 |  2160 |     - |  oneopt|   0 |1263 |  36k|  36k|   0 |  0 |   0 |   0 | 1.422415e+02 | 1.206292e+02 |  17.92%| unknown
  2.6s|     1 |     0 |  2170 |     - |   319M |   0 |1263 |  36k|  36k|   2 |  1 |   0 |   0 | 1.422147e+02 | 1.206292e+02 |  17.89%| unknown
  3.3s|     1 |     0 |  2199 |     - |   323M |   0 |1263 |  36k|  36k|   7 |  2 |   0 |   0 | 1.421463e+02 | 1.206292e+02 |  17.84%| unknown
  4.1s|     1 |     0 |  2233 |     - |   327M |   0 |1263 |  36k|  36k|   9 |  3 |   0 |   0 | 1.420911e+02 | 1.206292e+02 |  17.79%| unknown
  4.7s|     1 |     0 |  2280 |     - |   331M |   0 |1263 |  36k|  36k|  13 |  5 |   0 |   0 | 1.419683e+02 | 1.206292e+02 |  17.69%| unknown
  5.6s|     1 |     0 |  2288 |     - |   334M |   0 |1263 |  36k|  36k|  14 |  6 |   0 |   0 | 1.419536e+02 | 1.206292e+02 |  17.68%| unknown
  6.2s|     1 |     0 |  2316 |     - |   338M |   0 |1263 |  36k|  36k|  19 |  7 |   0 |   0 | 1.418866e+02 | 1.206292e+02 |  17.62%| unknown
r 6.2s|     1 |     0 |  2316 |     - |randroun|   0 |1263 |  36k|  36k|   0 |  7 |   0 |   0 | 1.418866e+02 | 1.215860e+02 |  16.70%| unknown
d 7.0s|     1 |     0 |  2446 |     - |farkasdi|   0 |1263 |  36k|  36k|   0 |  9 |   0 |   0 | 1.418866e+02 | 1.382468e+02 |   2.63%| unknown
d 7.0s|     1 |     0 |  2454 |     - |farkasdi|   0 |1263 |  36k|  36k|   0 |  9 |   0 |   0 | 1.418866e+02 | 1.384314e+02 |   2.50%| unknown
d 7.1s|     1 |     0 |  2461 |     - |farkasdi|   0 |1263 |  36k|  36k|   0 |  9 |   0 |   0 | 1.418866e+02 | 1.384864e+02 |   2.46%| unknown
 time | node  | left  |LP iter|LP it/n|mem/heur|mdpt |vars |cons |rows |cuts |sepa|confs|strbr|  dualbound   | primalbound  |  gap   | compl. 
d 7.2s|     1 |     0 |  2537 |     - |farkasdi|   0 |1263 |  36k|  36k|   0 |  9 |   0 |   0 | 1.418866e+02 | 1.385483e+02 |   2.41%| unknown
d 7.7s|     1 |     0 |  2901 |     - |conflict|   0 |1263 |  36k|  36k|   0 |  9 |  55 |   0 | 1.418866e+02 | 1.398483e+02 |   1.46%| unknown
L 8.2s|     1 |     0 |  2929 |     - |    rens|   0 |1263 |  36k|  36k|  19 |  9 |  55 |   0 | 1.418866e+02 | 1.401159e+02 |   1.26%| unknown
  8.3s|     1 |     0 |  2929 |     - |   346M |   0 |1263 |  36k|  36k|  19 |  9 |  55 |   0 | 1.418866e+02 | 1.401159e+02 |   1.26%| unknown
  8.3s|     1 |     0 |  2929 |     - |   346M |   0 |1263 |  36k|  12k|  19 |  9 |  55 |   0 | 1.418866e+02 | 1.401159e+02 |   1.26%| unknown
  8.6s|     1 |     0 |  2939 |     - |   347M |   0 |1263 |  13k|  13k|  27 | 10 |  55 |   0 | 1.418718e+02 | 1.401159e+02 |   1.25%| unknown
  8.6s|     1 |     0 |  2939 |     - |   347M |   0 |1263 |  13k|  12k|  27 | 10 |  55 |   0 | 1.418718e+02 | 1.401159e+02 |   1.25%| unknown
(run 1, node 1) restarting after 511 global fixings of integer variables

(restart) converted 27 cuts from the global cut pool into linear constraints

presolving:
(round 1, fast)       511 del vars, 0 del conss, 0 add conss, 0 chg bounds, 0 chg sides, 0 chg coeffs, 0 upgd conss, 0 impls, 12980 clqs
   (9.8s) running MILP presolver
   (9.8s) MILP presolver found nothing
(round 2, exhaustive) 511 del vars, 0 del conss, 0 add conss, 0 chg bounds, 0 chg sides, 0 chg coeffs, 27 upgd conss, 0 impls, 12980 clqs
presolving (3 rounds: 3 fast, 2 medium, 2 exhaustive):
 511 deleted vars, 4 deleted constraints, 0 added constraints, 0 tightened bounds, 0 added holes, 0 changed sides, 1 changed coefficients
 0 implications, 12980 cliques
presolved problem has 752 variables (752 bin, 0 int, 0 impl, 0 cont) and 13034 constraints
      2 constraints of type <knapsack>
  12980 constraints of type <setppc>
      1 constraints of type <linear>
     51 constraints of type <logicor>
Presolving Time: 2.18
transformed 67/70 original solutions to the transformed problem space

 time | node  | left  |LP iter|LP it/n|mem/heur|mdpt |vars |cons |rows |cuts |sepa|confs|strbr|  dualbound   | primalbound  |  gap   | compl. 
 11.1s|     1 |     0 |  4199 |     - |   378M |   0 | 752 |  13k|  12k|   0 |  0 |  55 |   0 | 1.418718e+02 | 1.401159e+02 |   1.25%| unknown
 11.1s|     1 |     0 |  4199 |     - |   378M |   0 | 752 |  13k|  12k|   0 |  0 |  55 |   0 | 1.418718e+02 | 1.401159e+02 |   1.25%| unknown
 12.0s|     1 |     0 |  4232 |     - |   379M |   0 | 752 |  12k|  12k|   2 |  1 |  55 |   0 | 1.418337e+02 | 1.401159e+02 |   1.23%| unknown
 12.0s|     1 |     0 |  4232 |     - |   380M |   0 | 752 |  12k|  12k|   2 |  1 |  55 |   0 | 1.418337e+02 | 1.401159e+02 |   1.23%| unknown
 13.5s|     1 |     0 |  4246 |     - |   382M |   0 | 752 |  12k|  12k|   3 |  2 |  55 |   0 | 1.418220e+02 | 1.401159e+02 |   1.22%| unknown
 14.9s|     1 |     0 |  4274 |     - |   384M |   0 | 752 |  12k|  12k|   8 |  3 |  55 |   0 | 1.418019e+02 | 1.401159e+02 |   1.20%| unknown
 16.2s|     1 |     0 |  4330 |     - |   386M |   0 | 752 |  12k|  12k|  11 |  4 |  55 |   0 | 1.417710e+02 | 1.401159e+02 |   1.18%| unknown
 16.2s|     1 |     0 |  4330 |     - |   386M |   0 | 752 |  12k|  12k|  11 |  4 |  55 |   0 | 1.417710e+02 | 1.401159e+02 |   1.18%| unknown
 17.2s|     1 |     0 |  4349 |     - |   387M |   0 | 752 |  12k|  12k|  12 |  5 |  55 |   0 | 1.417576e+02 | 1.401159e+02 |   1.17%| unknown
 17.2s|     1 |     0 |  4349 |     - |   387M |   0 | 752 |  12k|  12k|  12 |  5 |  55 |   0 | 1.417576e+02 | 1.401159e+02 |   1.17%| unknown
 18.2s|     1 |     0 |  4355 |     - |   390M |   0 | 752 |  12k|  12k|  13 |  6 |  55 |   0 | 1.417566e+02 | 1.401159e+02 |   1.17%| unknown
 18.2s|     1 |     0 |  4355 |     - |   390M |   0 | 752 |  12k|  12k|  13 |  6 |  55 |   0 | 1.417566e+02 | 1.401159e+02 |   1.17%| unknown
 19.1s|     1 |     0 |  4392 |     - |   391M |   0 | 752 |  12k|  12k|  14 |  7 |  55 |   0 | 1.417371e+02 | 1.401159e+02 |   1.16%| unknown
 19.1s|     1 |     0 |  4392 |     - |   391M |   0 | 752 |  12k|  12k|  14 |  7 |  55 |   0 | 1.417371e+02 | 1.401159e+02 |   1.16%| unknown
 20.2s|     1 |     0 |  4421 |     - |   393M |   0 | 752 |  12k|  12k|  15 |  8 |  55 |   0 | 1.417195e+02 | 1.401159e+02 |   1.14%| unknown
 time | node  | left  |LP iter|LP it/n|mem/heur|mdpt |vars |cons |rows |cuts |sepa|confs|strbr|  dualbound   | primalbound  |  gap   | compl. 
 20.2s|     1 |     0 |  4421 |     - |   393M |   0 | 752 |  12k|  11k|  15 |  8 |  55 |   0 | 1.417195e+02 | 1.401159e+02 |   1.14%| unknown
 21.2s|     1 |     0 |  4437 |     - |   395M |   0 | 752 |  12k|  11k|  16 |  9 |  55 |   0 | 1.417141e+02 | 1.401159e+02 |   1.14%| unknown
 22.2s|     1 |     0 |  4448 |     - |   396M |   0 | 752 |  12k|  11k|  17 | 10 |  55 |   0 | 1.417134e+02 | 1.401159e+02 |   1.14%| unknown
 22.2s|     1 |     0 |  4448 |     - |   396M |   0 | 752 |  12k|  11k|  17 | 10 |  55 |   0 | 1.417134e+02 | 1.401159e+02 |   1.14%| unknown
 22.3s|     1 |     0 |  4496 |     - |   397M |   0 | 752 |  11k|  11k|  18 | 11 |  55 |   0 | 1.416975e+02 | 1.401159e+02 |   1.13%| unknown
 22.3s|     1 |     0 |  4496 |     - |   398M |   0 | 752 |  11k|  11k|  18 | 11 |  55 |   0 | 1.416975e+02 | 1.401159e+02 |   1.13%| unknown
 22.4s|     1 |     0 |  4510 |     - |   399M |   0 | 752 |  11k|  11k|  19 | 12 |  55 |   0 | 1.416966e+02 | 1.401159e+02 |   1.13%| unknown
 22.4s|     1 |     0 |  4510 |     - |   399M |   0 | 752 |  11k|  11k|  19 | 12 |  55 |   0 | 1.416966e+02 | 1.401159e+02 |   1.13%| unknown
 23.8s|     1 |     2 |  5055 |     - |   400M |   0 | 752 |  11k|  11k|  19 | 14 |  56 |  22 | 1.416313e+02 | 1.401159e+02 |   1.08%| unknown
(run 2, node 1) restarting after 29 global fixings of integer variables

(restart) converted 19 cuts from the global cut pool into linear constraints

presolving:
(round 1, fast)       29 del vars, 0 del conss, 0 add conss, 0 chg bounds, 0 chg sides, 0 chg coeffs, 0 upgd conss, 0 impls, 11717 clqs
(round 2, exhaustive) 29 del vars, 2 del conss, 0 add conss, 0 chg bounds, 0 chg sides, 0 chg coeffs, 8 upgd conss, 0 impls, 11717 clqs
presolving (3 rounds: 3 fast, 2 medium, 2 exhaustive):
 29 deleted vars, 2 deleted constraints, 0 added constraints, 0 tightened bounds, 0 added holes, 0 changed sides, 0 changed coefficients
 0 implications, 11717 cliques
presolved problem has 723 variables (723 bin, 0 int, 0 impl, 0 cont) and 11782 constraints
      3 constraints of type <knapsack>
  11716 constraints of type <setppc>
     12 constraints of type <linear>
     51 constraints of type <logicor>
Presolving Time: 3.84
transformed 97/100 original solutions to the transformed problem space

 time | node  | left  |LP iter|LP it/n|mem/heur|mdpt |vars |cons |rows |cuts |sepa|confs|strbr|  dualbound   | primalbound  |  gap   | compl. 
 27.2s|     1 |     0 |  6933 |     - |   422M |   0 | 723 |  11k|  11k|   0 |  0 |  56 |  22 | 1.416313e+02 | 1.401159e+02 |   1.08%| unknown
 27.3s|     1 |     0 |  6933 |     - |   422M |   0 | 723 |  11k|  11k|   0 |  0 |  56 |  22 | 1.416313e+02 | 1.401159e+02 |   1.08%| unknown
 28.5s|     1 |     0 |  6954 |     - |   423M |   0 | 723 |  11k|  11k|   1 |  1 |  56 |  22 | 1.416313e+02 | 1.401159e+02 |   1.08%| unknown
 29.8s|     1 |     0 |  6971 |     - |   424M |   0 | 723 |  11k|  11k|   3 |  2 |  56 |  22 | 1.416313e+02 | 1.401159e+02 |   1.08%| unknown
 31.1s|     1 |     0 |  6989 |     - |   425M |   0 | 723 |  11k|  11k|   4 |  3 |  56 |  22 | 1.416313e+02 | 1.401159e+02 |   1.08%| unknown
 32.4s|     1 |     0 |  7017 |     - |   427M |   0 | 723 |  11k|  11k|   6 |  4 |  56 |  22 | 1.416313e+02 | 1.401159e+02 |   1.08%| unknown
 33.7s|     1 |     0 |  7037 |     - |   428M |   0 | 723 |  11k|  11k|   7 |  5 |  56 |  22 | 1.416313e+02 | 1.401159e+02 |   1.08%| unknown
 34.4s|     1 |     0 |  7080 |     - |   429M |   0 | 723 |  11k|  11k|   9 |  6 |  56 |  22 | 1.416313e+02 | 1.401159e+02 |   1.08%| unknown
 35.7s|     1 |     0 |  7103 |     - |   431M |   0 | 723 |  11k|  11k|  10 |  7 |  56 |  22 | 1.416313e+02 | 1.401159e+02 |   1.08%| unknown
 37.1s|     1 |     0 |  7131 |     - |   433M |   0 | 723 |  11k|  11k|  11 |  8 |  56 |  22 | 1.416313e+02 | 1.401159e+02 |   1.08%| unknown
 38.3s|     1 |     0 |  7186 |     - |   435M |   0 | 723 |  11k|  11k|  12 |  9 |  56 |  22 | 1.416313e+02 | 1.401159e+02 |   1.08%| unknown
 39.8s|     1 |     0 |  7226 |     - |   437M |   0 | 723 |  11k|  11k|  13 | 10 |  56 |  22 | 1.416313e+02 | 1.401159e+02 |   1.08%| unknown
 39.9s|     1 |     0 |  7236 |     - |   438M |   0 | 723 |  11k|  11k|  14 | 11 |  56 |  22 | 1.416313e+02 | 1.401159e+02 |   1.08%| unknown
 41.7s|     1 |     2 |  7766 |     - |   438M |   0 | 723 |  11k|  11k|  14 | 11 |  57 |  56 | 1.416313e+02 | 1.401159e+02 |   1.08%| unknown
r45.0s|    18 |     5 |  8626 | 136.0 |rounding|  10 | 723 |  11k|  11k|  34 |  0 |  65 | 206 | 1.416313e+02 | 1.412635e+02 |   0.26%|  13.75%
 time | node  | left  |LP iter|LP it/n|mem/heur|mdpt |vars |cons |rows |cuts |sepa|confs|strbr|  dualbound   | primalbound  |  gap   | compl. 
r46.9s|    41 |    12 |  9640 |  85.7 |rounding|  14 | 723 |  11k|  11k|  45 |  0 | 176 | 306 | 1.416200e+02 | 1.413413e+02 |   0.20%|  20.46%
 50.9s|   100 |    41 | 12028 |  59.3 |   454M |  22 | 723 |  11k|  11k|  71 |  2 | 287 | 471 | 1.415907e+02 | 1.413413e+02 |   0.18%|  27.25%
 56.1s|   200 |    65 | 14843 |  43.8 |   454M |  29 | 723 |  11k|  11k| 117 |  2 | 400 | 593 | 1.415422e+02 | 1.413413e+02 |   0.14%|  37.20%
 60.4s|   300 |   103 | 17249 |  37.2 |   455M |  30 | 723 |  11k|  11k| 152 |  2 | 502 | 711 | 1.415392e+02 | 1.413413e+02 |   0.14%|  46.14%
 63.1s|   400 |    91 | 19566 |  33.7 |   457M |  30 | 723 |  11k|  11k| 171 |  0 | 592 | 779 | 1.414964e+02 | 1.413413e+02 |   0.11%|  52.62%
 64.4s|   500 |    49 | 20946 |  29.7 |   457M |  30 | 723 |  11k|  11k| 175 |  0 | 656 | 833 | 1.414620e+02 | 1.413413e+02 |   0.09%|  61.85%
 65.3s|   600 |    27 | 22101 |  26.7 |   457M |  30 | 723 |  11k|  11k| 181 |  0 | 691 | 852 | 1.414047e+02 | 1.413413e+02 |   0.04%|  74.45%

SCIP Status        : problem is solved [optimal solution found]
Solving Time (sec) : 65.79
Solving Nodes      : 657 (total of 659 nodes in 3 runs)
Primal Bound       : +1.41341347467968e+02 (467 solutions)
Dual Bound         : +1.41341347467968e+02
Gap                : 0.00 %
Solve Status: optimal
Solve Time: 65.83 seconds
